% Generated by MiniZinc 2.9.3
% Solver library: /home/icwmmarijnisse/Pumpkin/minizinc/lib
% Command line invocation: minizinc --compile --fzn ./instance.fzn --ozn ./instance.ozn --solver pumpkin ../../../../benchmarks/models/tsp/instances/tsp.mzn ../../../../benchmarks/models/tsp/instances/TSP_N20_0.dzn 

predicate pumpkin_circuit(array [int] of var int: x);
array [1..20] of int: X_INTRODUCED_38_ = [0,839,975,770,241,689,318,231,826,204,151,26,48,251,487,626,871,787,75,467];
array [1..20] of int: X_INTRODUCED_40_ = [839,0,425,908,645,590,200,736,714,394,507,410,250,152,672,705,6,915,769,882];
array [1..20] of int: X_INTRODUCED_42_ = [975,425,0,789,907,110,798,436,225,181,824,981,713,531,476,52,571,256,940,869];
array [1..20] of int: X_INTRODUCED_44_ = [770,908,789,0,125,468,137,821,476,684,544,573,610,325,973,774,913,454,628,835];
array [1..20] of int: X_INTRODUCED_46_ = [241,645,907,125,0,737,914,517,437,851,929,562,457,919,163,762,883,487,461,266];
array [1..20] of int: X_INTRODUCED_48_ = [689,590,110,468,737,0,770,254,861,653,284,785,797,534,497,642,245,282,451,80];
array [1..20] of int: X_INTRODUCED_50_ = [318,200,798,137,914,770,0,731,293,241,279,344,328,915,554,83,142,155,237,393];
array [1..20] of int: X_INTRODUCED_52_ = [231,736,436,821,517,254,731,0,711,157,724,220,66,425,418,339,556,478,426,64];
array [1..20] of int: X_INTRODUCED_54_ = [826,714,225,476,437,861,293,711,0,212,853,431,399,927,789,599,969,713,21,878];
array [1..20] of int: X_INTRODUCED_56_ = [204,394,181,684,851,653,241,157,212,0,902,784,590,390,489,7,966,361,306,772];
array [1..20] of int: X_INTRODUCED_58_ = [151,507,824,544,929,284,279,724,853,902,0,400,874,914,977,856,430,552,766,753];
array [1..20] of int: X_INTRODUCED_60_ = [26,410,981,573,562,785,344,220,431,784,400,0,560,820,618,920,226,500,225,280];
array [1..20] of int: X_INTRODUCED_62_ = [48,250,713,610,457,797,328,66,399,590,874,560,0,447,498,30,399,345,685,696];
array [1..20] of int: X_INTRODUCED_64_ = [251,152,531,325,919,534,915,425,927,390,914,820,447,0,818,415,742,170,861,479];
array [1..20] of int: X_INTRODUCED_66_ = [487,672,476,973,163,497,554,418,789,489,977,618,498,818,0,942,131,638,547,28];
array [1..20] of int: X_INTRODUCED_68_ = [626,705,52,774,762,642,83,339,599,7,856,920,30,415,942,0,929,404,607,578];
array [1..20] of int: X_INTRODUCED_70_ = [871,6,571,913,883,245,142,556,969,966,430,226,399,742,131,929,0,679,28,86];
array [1..20] of int: X_INTRODUCED_72_ = [787,915,256,454,487,282,155,478,713,361,552,500,345,170,638,404,679,0,659,439];
array [1..20] of int: X_INTRODUCED_74_ = [75,769,940,628,461,451,237,426,21,306,766,225,685,861,547,607,28,659,0,139];
array [1..20] of int: X_INTRODUCED_76_ = [467,882,869,835,266,80,393,64,878,772,753,280,696,479,28,578,86,439,139,0];
array [1..21] of int: X_INTRODUCED_81_ = [1,-1,-1,-1,-1,-1,-1,-1,-1,-1,-1,-1,-1,-1,-1,-1,-1,-1,-1,-1,-1];
var 1..20: X_INTRODUCED_16_;
var 1..20: X_INTRODUCED_17_;
var 1..20: X_INTRODUCED_18_;
var 1..20: X_INTRODUCED_19_;
var 1..20: X_INTRODUCED_20_;
var 1..20: X_INTRODUCED_21_;
var 1..20: X_INTRODUCED_22_;
var 1..20: X_INTRODUCED_23_;
var 1..20: X_INTRODUCED_24_;
var 1..20: X_INTRODUCED_25_;
var 1..20: X_INTRODUCED_26_;
var 1..20: X_INTRODUCED_27_;
var 1..20: X_INTRODUCED_28_;
var 1..20: X_INTRODUCED_29_;
var 1..20: X_INTRODUCED_30_;
var 1..20: X_INTRODUCED_31_;
var 1..20: X_INTRODUCED_32_;
var 1..20: X_INTRODUCED_33_;
var 1..20: X_INTRODUCED_34_;
var 1..20: X_INTRODUCED_35_;
var 0..18689: Objective:: output_var:: is_defined_var;
var 0..975: X_INTRODUCED_39_ ::var_is_introduced :: is_defined_var;
var 0..915: X_INTRODUCED_41_ ::var_is_introduced :: is_defined_var;
var 0..981: X_INTRODUCED_43_ ::var_is_introduced :: is_defined_var;
var 0..973: X_INTRODUCED_45_ ::var_is_introduced :: is_defined_var;
var 0..929: X_INTRODUCED_47_ ::var_is_introduced :: is_defined_var;
var 0..861: X_INTRODUCED_49_ ::var_is_introduced :: is_defined_var;
var 0..915: X_INTRODUCED_51_ ::var_is_introduced :: is_defined_var;
var 0..821: X_INTRODUCED_53_ ::var_is_introduced :: is_defined_var;
var 0..969: X_INTRODUCED_55_ ::var_is_introduced :: is_defined_var;
var 0..966: X_INTRODUCED_57_ ::var_is_introduced :: is_defined_var;
var 0..977: X_INTRODUCED_59_ ::var_is_introduced :: is_defined_var;
var 0..981: X_INTRODUCED_61_ ::var_is_introduced :: is_defined_var;
var 0..874: X_INTRODUCED_63_ ::var_is_introduced :: is_defined_var;
var 0..927: X_INTRODUCED_65_ ::var_is_introduced :: is_defined_var;
var 0..977: X_INTRODUCED_67_ ::var_is_introduced :: is_defined_var;
var 0..942: X_INTRODUCED_69_ ::var_is_introduced :: is_defined_var;
var 0..969: X_INTRODUCED_71_ ::var_is_introduced :: is_defined_var;
var 0..915: X_INTRODUCED_73_ ::var_is_introduced :: is_defined_var;
var 0..940: X_INTRODUCED_75_ ::var_is_introduced :: is_defined_var;
var 0..882: X_INTRODUCED_77_ ::var_is_introduced :: is_defined_var;
array [1..20] of var int: Successor:: output_array([1..20]) = [X_INTRODUCED_16_,X_INTRODUCED_17_,X_INTRODUCED_18_,X_INTRODUCED_19_,X_INTRODUCED_20_,X_INTRODUCED_21_,X_INTRODUCED_22_,X_INTRODUCED_23_,X_INTRODUCED_24_,X_INTRODUCED_25_,X_INTRODUCED_26_,X_INTRODUCED_27_,X_INTRODUCED_28_,X_INTRODUCED_29_,X_INTRODUCED_30_,X_INTRODUCED_31_,X_INTRODUCED_32_,X_INTRODUCED_33_,X_INTRODUCED_34_,X_INTRODUCED_35_];
array [1..21] of var int: X_INTRODUCED_80_ ::var_is_introduced  = [Objective,X_INTRODUCED_39_,X_INTRODUCED_41_,X_INTRODUCED_43_,X_INTRODUCED_45_,X_INTRODUCED_47_,X_INTRODUCED_49_,X_INTRODUCED_51_,X_INTRODUCED_53_,X_INTRODUCED_55_,X_INTRODUCED_57_,X_INTRODUCED_59_,X_INTRODUCED_61_,X_INTRODUCED_63_,X_INTRODUCED_65_,X_INTRODUCED_67_,X_INTRODUCED_69_,X_INTRODUCED_71_,X_INTRODUCED_73_,X_INTRODUCED_75_,X_INTRODUCED_77_];
constraint pumpkin_circuit(Successor);
constraint array_int_element(X_INTRODUCED_16_,X_INTRODUCED_38_,X_INTRODUCED_39_):: defines_var(X_INTRODUCED_39_);
constraint array_int_element(X_INTRODUCED_17_,X_INTRODUCED_40_,X_INTRODUCED_41_):: defines_var(X_INTRODUCED_41_);
constraint array_int_element(X_INTRODUCED_18_,X_INTRODUCED_42_,X_INTRODUCED_43_):: defines_var(X_INTRODUCED_43_);
constraint array_int_element(X_INTRODUCED_19_,X_INTRODUCED_44_,X_INTRODUCED_45_):: defines_var(X_INTRODUCED_45_);
constraint array_int_element(X_INTRODUCED_20_,X_INTRODUCED_46_,X_INTRODUCED_47_):: defines_var(X_INTRODUCED_47_);
constraint array_int_element(X_INTRODUCED_21_,X_INTRODUCED_48_,X_INTRODUCED_49_):: defines_var(X_INTRODUCED_49_);
constraint array_int_element(X_INTRODUCED_22_,X_INTRODUCED_50_,X_INTRODUCED_51_):: defines_var(X_INTRODUCED_51_);
constraint array_int_element(X_INTRODUCED_23_,X_INTRODUCED_52_,X_INTRODUCED_53_):: defines_var(X_INTRODUCED_53_);
constraint array_int_element(X_INTRODUCED_24_,X_INTRODUCED_54_,X_INTRODUCED_55_):: defines_var(X_INTRODUCED_55_);
constraint array_int_element(X_INTRODUCED_25_,X_INTRODUCED_56_,X_INTRODUCED_57_):: defines_var(X_INTRODUCED_57_);
constraint array_int_element(X_INTRODUCED_26_,X_INTRODUCED_58_,X_INTRODUCED_59_):: defines_var(X_INTRODUCED_59_);
constraint array_int_element(X_INTRODUCED_27_,X_INTRODUCED_60_,X_INTRODUCED_61_):: defines_var(X_INTRODUCED_61_);
constraint array_int_element(X_INTRODUCED_28_,X_INTRODUCED_62_,X_INTRODUCED_63_):: defines_var(X_INTRODUCED_63_);
constraint array_int_element(X_INTRODUCED_29_,X_INTRODUCED_64_,X_INTRODUCED_65_):: defines_var(X_INTRODUCED_65_);
constraint array_int_element(X_INTRODUCED_30_,X_INTRODUCED_66_,X_INTRODUCED_67_):: defines_var(X_INTRODUCED_67_);
constraint array_int_element(X_INTRODUCED_31_,X_INTRODUCED_68_,X_INTRODUCED_69_):: defines_var(X_INTRODUCED_69_);
constraint array_int_element(X_INTRODUCED_32_,X_INTRODUCED_70_,X_INTRODUCED_71_):: defines_var(X_INTRODUCED_71_);
constraint array_int_element(X_INTRODUCED_33_,X_INTRODUCED_72_,X_INTRODUCED_73_):: defines_var(X_INTRODUCED_73_);
constraint array_int_element(X_INTRODUCED_34_,X_INTRODUCED_74_,X_INTRODUCED_75_):: defines_var(X_INTRODUCED_75_);
constraint array_int_element(X_INTRODUCED_35_,X_INTRODUCED_76_,X_INTRODUCED_77_):: defines_var(X_INTRODUCED_77_);
constraint int_lin_eq(X_INTRODUCED_81_,X_INTRODUCED_80_,0):: defines_var(Objective);
solve  minimize Objective;
